23 23
19
3 3   13 14
3 4   16 19
3 5   6 18
3 6   13 17
3 7   6 11
3 8   0 12
3 9   16 10
3 10   16 0
3 11   6 0
3 12   0 0
3 14   13 0
3 20   3 0
4 3   9 20
4 4   9 16
4 6   9 10
4 10   9 0
4 11   19 12
4 12   19 0
6 3   0 20